data/solutions/planning/wellformed/intermediate/weighting/wellformed_intermediate_instance15_gurobi.sol
Elapsed time: 5.23
Nodes explored: 2037
Nodes left: 878
Relative gap: 0.005
Upper bound: 30491789.0
Lower bound: 30490260
C[0]=29808.0
C[1]=29805.0
C[2]=29804.0
C[3]=29804.0
C[4]=29804.0
C[5]=29804.0
C[6]=29804.0
C[7]=29803.0
C[8]=29803.0
C[9]=29803.0
y[0]=9
y[1]=6
y[2]=5
y[3]=6
y[4]=3
y[5]=4
y[6]=5
y[7]=3
y[8]=0
y[9]=3
y[10]=6
y[11]=4
y[12]=7
y[13]=1
y[14]=5
y[15]=5
y[16]=4
y[17]=1
y[18]=3
y[19]=2
y[20]=7
y[21]=7
y[22]=7
y[23]=2
y[24]=7
y[25]=0
y[26]=8
y[27]=1
y[28]=3
y[29]=0
y[30]=1
y[31]=5
y[32]=1
y[33]=4
y[34]=2
y[35]=2
y[36]=6
y[37]=2
y[38]=4
y[39]=4
y[40]=1
y[41]=4
y[42]=3
y[43]=3
y[44]=9
y[45]=0
y[46]=1
y[47]=8
y[48]=5
y[49]=0
y[50]=7
y[51]=7
y[52]=9
y[53]=8
y[54]=6
y[55]=1
y[56]=7
y[57]=3
y[58]=7
y[59]=4
y[60]=1
y[61]=4
y[62]=4
y[63]=1
y[64]=7
y[65]=9
y[66]=6
y[67]=5
y[68]=0
y[69]=4
y[70]=2
y[71]=8
y[72]=2
y[73]=8
y[74]=8
y[75]=3
y[76]=0
y[77]=9
y[78]=9
y[79]=4
y[80]=5
y[81]=6
y[82]=4
y[83]=3
y[84]=1
y[85]=5
y[86]=5
y[87]=8
y[88]=1
y[89]=9
y[90]=9
y[91]=9
y[92]=4
y[93]=2
y[94]=8
y[95]=1
y[96]=7
y[97]=9
y[98]=3
y[99]=5
y[100]=6
y[101]=9
y[102]=9
y[103]=9
y[104]=1
y[105]=6
y[106]=6
y[107]=5
y[108]=4
y[109]=4
y[110]=5
y[111]=2
y[112]=9
y[113]=6
y[114]=3
y[115]=2
y[116]=3
y[117]=7
y[118]=7
y[119]=5
y[120]=5
y[121]=7
y[122]=7
y[123]=3
y[124]=2
y[125]=2
y[126]=3
y[127]=7
y[128]=2
y[129]=0
y[130]=8
y[131]=2
y[132]=5
y[133]=2
y[134]=1
y[135]=4
y[136]=7
y[137]=1
y[138]=2
y[139]=3
y[140]=7
y[141]=6
y[142]=5
y[143]=3
y[144]=6
y[145]=3
y[146]=2
y[147]=7
y[148]=2
y[149]=9
y[150]=0
y[151]=6
y[152]=2
y[153]=9
y[154]=7
y[155]=2
y[156]=2
y[157]=7
y[158]=8
y[159]=7
y[160]=4
y[161]=3
y[162]=3
y[163]=7
y[164]=5
y[165]=8
y[166]=3
y[167]=7
y[168]=1
y[169]=7
y[170]=2
y[171]=5
y[172]=8
y[173]=6
y[174]=2
y[175]=8
y[176]=3
y[177]=8
y[178]=3
y[179]=2
y[180]=6
y[181]=1
y[182]=3
y[183]=7
y[184]=8
y[185]=8
y[186]=3
y[187]=3
y[188]=1
y[189]=6
y[190]=3
y[191]=5
y[192]=8
y[193]=5
y[194]=8
y[195]=1
y[196]=4
y[197]=2
y[198]=8
y[199]=3
y[200]=4
y[201]=5
y[202]=1
y[203]=2
y[204]=3
y[205]=0
y[206]=1
y[207]=2
y[208]=9
y[209]=3
y[210]=2
y[211]=7
y[212]=1
y[213]=9
y[214]=9
y[215]=8
y[216]=3
y[217]=6
y[218]=3
y[219]=4
y[220]=3
y[221]=6
y[222]=2
y[223]=8
y[224]=4
y[225]=7
y[226]=3
y[227]=7
y[228]=0
y[229]=1
y[230]=4
y[231]=4
y[232]=6
y[233]=8
y[234]=5
y[235]=4
y[236]=8
y[237]=4
y[238]=3
y[239]=0
y[240]=6
y[241]=3
y[242]=8
y[243]=9
y[244]=1
y[245]=6
y[246]=1
y[247]=8
y[248]=4
y[249]=6
y[250]=9
y[251]=5
y[252]=8
y[253]=3
y[254]=5
y[255]=3
y[256]=9
y[257]=0
y[258]=6
y[259]=6
y[260]=4
y[261]=4
y[262]=9
y[263]=9
y[264]=7
y[265]=5
y[266]=4
y[267]=6
y[268]=4
y[269]=0
y[270]=7
y[271]=0
y[272]=0
y[273]=1
y[274]=1
y[275]=1
y[276]=8
y[277]=7
y[278]=0
y[279]=0
y[280]=0
y[281]=4
y[282]=7
y[283]=9
y[284]=7
y[285]=8
y[286]=7
y[287]=3
y[288]=5
y[289]=7
y[290]=1
y[291]=2
y[292]=8
y[293]=2
y[294]=0
y[295]=2
y[296]=3
y[297]=4
y[298]=7
y[299]=2
